set VV := 0 1 2 3 4 5 6 7 8 9 10 11 12 13 ;
set VS := 0 1 2 3 4 5 6 7 8 9 10 11 12 13 14 15 16 17 18 19 20 21 22 23 24 25 26 27 28 29 30 31 ;
param cv := 
0 11
1 12
2 25
3 16
4 20
5 14
6 23
7 15
8 11
9 15
10 10
11 15
12 20
13 16
;
param cs := 
0 30
1 22
2 30
3 40
4 26
5 39
6 27
7 25
8 37
9 29
10 35
11 32
12 24
13 36
14 23
15 40
16 24
17 29
18 30
19 34
20 27
21 26
22 40
23 40
24 22
25 32
26 37
27 29
28 33
29 36
30 31
31 30
;
param bv:	 0 1 2 3 4 5 6 7 8 9 10 11 12 13 := 
		0 0 23 0 0 0 0 0 0 19 0 17 0 0 0 
		1 0 0 0 0 11 0 0 0 0 0 0 0 19 0 
		2 0 0 0 0 0 0 19 0 0 0 0 0 0 0 
		3 0 0 0 0 0 0 19 0 0 0 0 0 0 0 
		4 0 0 0 0 0 0 0 0 23 0 0 0 0 0 
		5 0 0 0 0 0 0 0 0 0 0 0 22 0 0 
		6 0 0 0 0 0 0 0 25 0 0 0 0 0 0 
		7 0 0 0 0 0 0 0 0 24 0 20 15 0 19 
		8 0 0 0 0 0 0 0 0 0 0 0 0 0 23 
		9 0 0 0 0 0 0 0 0 0 0 19 0 22 18 
		10 0 0 0 0 0 0 0 0 0 0 0 0 0 0 
		11 0 0 0 0 0 0 0 0 0 0 0 0 0 0 
		12 0 0 0 0 0 0 0 0 0 0 0 0 0 0 
		13 0 0 0 0 0 0 0 0 0 0 0 0 0 0 
;
param bs:	 0 1 2 3 4 5 6 7 8 9 10 11 12 13 14 15 16 17 18 19 20 21 22 23 24 25 26 27 28 29 30 31 := 
		0 0 0 0 0 0 0 0 0 0 0 0 0 36 0 0 20 0 0 0 0 0 0 0 0 0 20 0 27 0 0 0 0 
		1 0 0 0 0 31 0 0 0 39 0 0 0 0 26 0 0 0 0 0 0 0 27 0 24 0 0 0 0 0 0 0 0 
		2 0 0 0 0 0 0 0 0 0 23 0 0 0 0 0 0 0 0 0 0 0 0 0 0 0 0 0 0 0 20 0 0 
		3 0 0 0 0 0 0 0 0 0 0 0 0 0 0 0 0 0 0 0 31 0 0 0 0 0 0 0 0 0 0 0 0 
		4 0 31 0 0 0 0 0 0 0 0 0 0 0 0 32 0 0 0 33 0 0 0 22 28 0 0 0 39 0 26 31 0 
		5 0 0 0 0 0 0 0 0 28 0 0 0 0 0 34 0 0 21 0 0 0 0 0 0 0 0 0 0 0 0 0 0 
		6 0 0 0 0 0 0 0 32 0 38 0 24 0 0 0 0 37 0 0 0 0 0 0 40 0 26 0 0 0 0 0 0 
		7 0 0 0 0 0 0 32 0 0 0 0 0 0 0 0 0 0 0 0 0 0 0 0 0 0 28 0 0 0 0 22 0 
		8 0 39 0 0 0 28 0 0 0 0 0 0 0 0 0 22 0 0 0 0 0 20 0 0 0 31 0 0 0 0 0 0 
		9 0 0 23 0 0 0 38 0 0 0 24 0 0 0 0 0 0 38 0 0 39 33 0 0 0 0 0 0 33 0 0 0 
		10 0 0 0 0 0 0 0 0 0 24 0 0 0 0 0 0 0 0 0 0 0 0 0 0 0 0 0 0 0 0 0 0 
		11 0 0 0 0 0 0 24 0 0 0 0 0 0 0 0 22 0 0 30 36 0 0 0 27 0 30 0 0 0 0 0 0 
		12 36 0 0 0 0 0 0 0 0 0 0 0 0 0 0 0 0 0 22 0 0 0 0 0 26 0 0 0 0 0 0 0 
		13 0 26 0 0 0 0 0 0 0 0 0 0 0 0 0 0 0 29 0 0 0 0 0 0 0 25 0 0 0 0 25 0 
		14 0 0 0 0 32 34 0 0 0 0 0 0 0 0 0 0 0 0 0 30 0 0 22 28 0 0 0 0 39 0 0 0 
		15 20 0 0 0 0 0 0 0 22 0 0 22 0 0 0 0 0 0 0 0 0 0 0 0 0 0 0 0 0 0 37 0 
		16 0 0 0 0 0 0 37 0 0 0 0 0 0 0 0 0 0 0 36 0 0 0 0 0 0 0 0 0 0 0 0 0 
		17 0 0 0 0 0 21 0 0 0 38 0 0 0 29 0 0 0 0 0 0 29 0 0 0 0 0 0 0 38 0 0 35 
		18 0 0 0 0 33 0 0 0 0 0 0 30 22 0 0 0 36 0 0 0 0 0 0 35 0 0 0 0 0 0 26 0 
		19 0 0 0 31 0 0 0 0 0 0 0 36 0 0 30 0 0 0 0 0 0 0 0 0 0 0 0 0 0 0 0 0 
		20 0 0 0 0 0 0 0 0 0 39 0 0 0 0 0 0 0 29 0 0 0 0 0 0 0 0 0 0 23 27 0 0 
		21 0 27 0 0 0 0 0 0 20 33 0 0 0 0 0 0 0 0 0 0 0 0 0 0 0 0 0 0 35 0 0 0 
		22 0 0 0 0 22 0 0 0 0 0 0 0 0 0 22 0 0 0 0 0 0 0 0 0 0 32 0 25 0 0 0 0 
		23 0 24 0 0 28 0 40 0 0 0 0 27 0 0 28 0 0 0 35 0 0 0 0 0 0 0 0 0 0 0 0 0 
		24 0 0 0 0 0 0 0 0 0 0 0 0 26 0 0 0 0 0 0 0 0 0 0 0 0 0 33 0 0 0 0 0 
		25 20 0 0 0 0 0 26 28 31 0 0 30 0 25 0 0 0 0 0 0 0 0 32 0 0 0 34 0 0 0 0 0 
		26 0 0 0 0 0 0 0 0 0 0 0 0 0 0 0 0 0 0 0 0 0 0 0 0 33 34 0 0 0 0 0 0 
		27 27 0 0 0 39 0 0 0 0 0 0 0 0 0 0 0 0 0 0 0 0 0 25 0 0 0 0 0 0 0 0 0 
		28 0 0 0 0 0 0 0 0 0 33 0 0 0 0 39 0 0 38 0 0 23 35 0 0 0 0 0 0 0 0 0 0 
		29 0 0 20 0 26 0 0 0 0 0 0 0 0 0 0 0 0 0 0 0 27 0 0 0 0 0 0 0 0 0 0 0 
		30 0 0 0 0 31 0 0 22 0 0 0 0 0 25 0 37 0 0 26 0 0 0 0 0 0 0 0 0 0 0 0 0 
		31 0 0 0 0 0 0 0 0 0 0 0 0 0 0 0 0 0 35 0 0 0 0 0 0 0 0 0 0 0 0 0 0 
;
